(set-logic CHC_LIA)

(synth-fun h1 ((x_0 Int) (x_1 Int) (x_2 Int) (x_3 Int) (x_4 Int) (x_5 Int) (x_6 Int) (x_7 Int) (x_8 Int) (x_9 Int) (x_10 Int) (x_11 Int) (x_12 Int) (x_13 Int)) Bool)

(synth-fun h2 ((x_0 Int) (x_1 Int) (x_2 Int) (x_3 Int) (x_4 Int) (x_5 Int) (x_6 Int) (x_7 Int) (x_8 Int) (x_9 Int) (x_10 Int) (x_11 Int) (x_12 Int) (x_13 Int)) Bool)

(synth-fun h3 ((x_0 Int) (x_1 Int) (x_2 Int) (x_3 Int) (x_4 Int) (x_5 Int) (x_6 Int) (x_7 Int) (x_8 Int) (x_9 Int) (x_10 Int) (x_11 Int) (x_12 Int) (x_13 Int)) Bool)

(synth-fun h4 ((x_0 Int) (x_1 Int) (x_2 Int) (x_3 Int) (x_4 Int) (x_5 Int) (x_6 Int) (x_7 Int) (x_8 Int) (x_9 Int) (x_10 Int) (x_11 Int) (x_12 Int) (x_13 Int)) Bool)

(synth-fun h5 ((x_0 Int) (x_1 Int) (x_2 Int) (x_3 Int) (x_4 Int) (x_5 Int) (x_6 Int) (x_7 Int) (x_8 Int) (x_9 Int) (x_10 Int) (x_11 Int) (x_12 Int) (x_13 Int)) Bool)

(synth-fun h6 ((x_0 Int) (x_1 Int) (x_2 Int) (x_3 Int) (x_4 Int) (x_5 Int) (x_6 Int) (x_7 Int) (x_8 Int) (x_9 Int) (x_10 Int) (x_11 Int) (x_12 Int) (x_13 Int)) Bool)

(synth-fun h7 ((x_0 Int) (x_1 Int) (x_2 Int) (x_3 Int) (x_4 Int) (x_5 Int) (x_6 Int) (x_7 Int) (x_8 Int) (x_9 Int) (x_10 Int) (x_11 Int) (x_12 Int) (x_13 Int)) Bool)

(synth-fun h8 ((x_0 Int) (x_1 Int) (x_2 Int) (x_3 Int) (x_4 Int) (x_5 Int) (x_6 Int) (x_7 Int) (x_8 Int) (x_9 Int) (x_10 Int) (x_11 Int) (x_12 Int) (x_13 Int)) Bool)

(synth-fun h9 ((x_0 Int) (x_1 Int) (x_2 Int) (x_3 Int) (x_4 Int) (x_5 Int) (x_6 Int) (x_7 Int) (x_8 Int) (x_9 Int) (x_10 Int) (x_11 Int) (x_12 Int) (x_13 Int)) Bool)

(synth-fun h10 ((x_0 Int) (x_1 Int) (x_2 Int) (x_3 Int) (x_4 Int) (x_5 Int) (x_6 Int) (x_7 Int) (x_8 Int) (x_9 Int) (x_10 Int) (x_11 Int) (x_12 Int) (x_13 Int)) Bool)

(synth-fun h11 ((x_0 Int) (x_1 Int) (x_2 Int) (x_3 Int) (x_4 Int) (x_5 Int) (x_6 Int) (x_7 Int) (x_8 Int) (x_9 Int) (x_10 Int) (x_11 Int) (x_12 Int) (x_13 Int)) Bool)

(synth-fun h12 ((x_0 Int) (x_1 Int) (x_2 Int) (x_3 Int) (x_4 Int) (x_5 Int) (x_6 Int) (x_7 Int) (x_8 Int) (x_9 Int) (x_10 Int) (x_11 Int) (x_12 Int) (x_13 Int)) Bool)

(synth-fun h13 ((x_0 Int) (x_1 Int) (x_2 Int) (x_3 Int) (x_4 Int) (x_5 Int) (x_6 Int) (x_7 Int) (x_8 Int) (x_9 Int) (x_10 Int) (x_11 Int) (x_12 Int) (x_13 Int)) Bool)

(synth-fun h14 ((x_0 Int) (x_1 Int) (x_2 Int) (x_3 Int) (x_4 Int) (x_5 Int) (x_6 Int) (x_7 Int) (x_8 Int) (x_9 Int) (x_10 Int) (x_11 Int) (x_12 Int) (x_13 Int)) Bool)

(synth-fun h15 ((x_0 Int) (x_1 Int) (x_2 Int) (x_3 Int) (x_4 Int) (x_5 Int) (x_6 Int) (x_7 Int) (x_8 Int) (x_9 Int) (x_10 Int) (x_11 Int) (x_12 Int) (x_13 Int)) Bool)

(synth-fun h16 ((x_0 Int) (x_1 Int) (x_2 Int) (x_3 Int) (x_4 Int) (x_5 Int) (x_6 Int) (x_7 Int) (x_8 Int) (x_9 Int) (x_10 Int) (x_11 Int) (x_12 Int) (x_13 Int)) Bool)

(synth-fun h17 ((x_0 Int) (x_1 Int) (x_2 Int) (x_3 Int) (x_4 Int) (x_5 Int) (x_6 Int) (x_7 Int) (x_8 Int) (x_9 Int) (x_10 Int) (x_11 Int) (x_12 Int) (x_13 Int)) Bool)

(synth-fun h18 ((x_0 Int) (x_1 Int) (x_2 Int) (x_3 Int) (x_4 Int) (x_5 Int) (x_6 Int) (x_7 Int) (x_8 Int) (x_9 Int) (x_10 Int) (x_11 Int) (x_12 Int) (x_13 Int)) Bool)

(synth-fun h19 ((x_0 Int) (x_1 Int) (x_2 Int) (x_3 Int) (x_4 Int) (x_5 Int) (x_6 Int) (x_7 Int) (x_8 Int) (x_9 Int) (x_10 Int) (x_11 Int) (x_12 Int) (x_13 Int)) Bool)

(synth-fun h20 ((x_0 Int) (x_1 Int) (x_2 Int) (x_3 Int) (x_4 Int) (x_5 Int) (x_6 Int) (x_7 Int) (x_8 Int) (x_9 Int) (x_10 Int) (x_11 Int) (x_12 Int) (x_13 Int)) Bool)

(synth-fun h21 ((x_0 Int) (x_1 Int) (x_2 Int) (x_3 Int) (x_4 Int) (x_5 Int) (x_6 Int) (x_7 Int) (x_8 Int) (x_9 Int) (x_10 Int) (x_11 Int) (x_12 Int) (x_13 Int)) Bool)

(synth-fun h22 ((x_0 Int) (x_1 Int) (x_2 Int) (x_3 Int) (x_4 Int) (x_5 Int) (x_6 Int) (x_7 Int) (x_8 Int) (x_9 Int) (x_10 Int) (x_11 Int) (x_12 Int) (x_13 Int)) Bool)

(synth-fun h23 ((x_0 Int) (x_1 Int) (x_2 Int) (x_3 Int) (x_4 Int) (x_5 Int) (x_6 Int) (x_7 Int) (x_8 Int) (x_9 Int) (x_10 Int) (x_11 Int) (x_12 Int) (x_13 Int)) Bool)

(synth-fun h24 ((x_0 Int) (x_1 Int) (x_2 Int) (x_3 Int) (x_4 Int) (x_5 Int) (x_6 Int) (x_7 Int) (x_8 Int) (x_9 Int) (x_10 Int) (x_11 Int) (x_12 Int) (x_13 Int)) Bool)

(synth-fun h25 ((x_0 Int) (x_1 Int) (x_2 Int) (x_3 Int) (x_4 Int) (x_5 Int) (x_6 Int) (x_7 Int) (x_8 Int) (x_9 Int) (x_10 Int) (x_11 Int) (x_12 Int) (x_13 Int)) Bool)

(synth-fun h26 ((x_0 Int) (x_1 Int) (x_2 Int) (x_3 Int) (x_4 Int) (x_5 Int) (x_6 Int) (x_7 Int) (x_8 Int) (x_9 Int) (x_10 Int) (x_11 Int) (x_12 Int) (x_13 Int)) Bool)

(synth-fun h27 ((x_0 Int) (x_1 Int) (x_2 Int) (x_3 Int) (x_4 Int) (x_5 Int) (x_6 Int) (x_7 Int) (x_8 Int) (x_9 Int) (x_10 Int) (x_11 Int) (x_12 Int) (x_13 Int)) Bool)

(synth-fun h28 ((x_0 Int) (x_1 Int) (x_2 Int) (x_3 Int) (x_4 Int) (x_5 Int) (x_6 Int) (x_7 Int) (x_8 Int) (x_9 Int) (x_10 Int) (x_11 Int) (x_12 Int) (x_13 Int)) Bool)

(synth-fun h29 ((x_0 Int) (x_1 Int) (x_2 Int) (x_3 Int) (x_4 Int) (x_5 Int) (x_6 Int) (x_7 Int) (x_8 Int) (x_9 Int) (x_10 Int) (x_11 Int) (x_12 Int) (x_13 Int)) Bool)

(synth-fun h30 ((x_0 Int) (x_1 Int) (x_2 Int) (x_3 Int) (x_4 Int) (x_5 Int) (x_6 Int) (x_7 Int) (x_8 Int) (x_9 Int) (x_10 Int) (x_11 Int) (x_12 Int) (x_13 Int)) Bool)

(synth-fun h31 ((x_0 Int) (x_1 Int) (x_2 Int) (x_3 Int) (x_4 Int) (x_5 Int) (x_6 Int) (x_7 Int) (x_8 Int) (x_9 Int) (x_10 Int) (x_11 Int) (x_12 Int) (x_13 Int)) Bool)

(synth-fun h32 ((x_0 Int) (x_1 Int) (x_2 Int) (x_3 Int) (x_4 Int) (x_5 Int) (x_6 Int) (x_7 Int) (x_8 Int) (x_9 Int) (x_10 Int) (x_11 Int) (x_12 Int) (x_13 Int)) Bool)

(synth-fun h33 ((x_0 Int) (x_1 Int) (x_2 Int) (x_3 Int) (x_4 Int) (x_5 Int) (x_6 Int) (x_7 Int) (x_8 Int) (x_9 Int) (x_10 Int) (x_11 Int) (x_12 Int) (x_13 Int)) Bool)

(synth-fun h34 ((x_0 Int) (x_1 Int) (x_2 Int) (x_3 Int) (x_4 Int) (x_5 Int) (x_6 Int) (x_7 Int) (x_8 Int) (x_9 Int) (x_10 Int) (x_11 Int) (x_12 Int) (x_13 Int)) Bool)

(synth-fun h35 ((x_0 Int) (x_1 Int) (x_2 Int) (x_3 Int) (x_4 Int) (x_5 Int) (x_6 Int) (x_7 Int) (x_8 Int) (x_9 Int) (x_10 Int) (x_11 Int) (x_12 Int) (x_13 Int)) Bool)

(synth-fun h36 ((x_0 Int) (x_1 Int) (x_2 Int) (x_3 Int) (x_4 Int) (x_5 Int) (x_6 Int) (x_7 Int) (x_8 Int) (x_9 Int) (x_10 Int) (x_11 Int) (x_12 Int) (x_13 Int)) Bool)

(synth-fun h37 ((x_0 Int) (x_1 Int) (x_2 Int) (x_3 Int) (x_4 Int) (x_5 Int) (x_6 Int) (x_7 Int) (x_8 Int) (x_9 Int) (x_10 Int) (x_11 Int) (x_12 Int) (x_13 Int)) Bool)

(synth-fun h38 ((x_0 Int) (x_1 Int) (x_2 Int) (x_3 Int) (x_4 Int) (x_5 Int) (x_6 Int) (x_7 Int) (x_8 Int) (x_9 Int) (x_10 Int) (x_11 Int) (x_12 Int) (x_13 Int)) Bool)

(synth-fun h39 ((x_0 Int) (x_1 Int) (x_2 Int) (x_3 Int) (x_4 Int) (x_5 Int) (x_6 Int) (x_7 Int) (x_8 Int) (x_9 Int) (x_10 Int) (x_11 Int) (x_12 Int) (x_13 Int)) Bool)

(synth-fun h40 ((x_0 Int) (x_1 Int) (x_2 Int) (x_3 Int) (x_4 Int) (x_5 Int) (x_6 Int) (x_7 Int) (x_8 Int) (x_9 Int) (x_10 Int) (x_11 Int) (x_12 Int) (x_13 Int)) Bool)

(synth-fun h41 ((x_0 Int) (x_1 Int) (x_2 Int) (x_3 Int) (x_4 Int) (x_5 Int) (x_6 Int) (x_7 Int) (x_8 Int) (x_9 Int) (x_10 Int) (x_11 Int) (x_12 Int) (x_13 Int)) Bool)

(synth-fun h42 ((x_0 Int) (x_1 Int) (x_2 Int) (x_3 Int) (x_4 Int) (x_5 Int) (x_6 Int) (x_7 Int) (x_8 Int) (x_9 Int) (x_10 Int) (x_11 Int) (x_12 Int) (x_13 Int)) Bool)

(synth-fun h43 ((x_0 Int) (x_1 Int) (x_2 Int) (x_3 Int) (x_4 Int) (x_5 Int) (x_6 Int) (x_7 Int) (x_8 Int) (x_9 Int) (x_10 Int) (x_11 Int) (x_12 Int) (x_13 Int)) Bool)

(synth-fun h44 ((x_0 Int) (x_1 Int) (x_2 Int) (x_3 Int) (x_4 Int) (x_5 Int) (x_6 Int) (x_7 Int) (x_8 Int) (x_9 Int) (x_10 Int) (x_11 Int) (x_12 Int) (x_13 Int)) Bool)

(synth-fun h45 ((x_0 Int) (x_1 Int) (x_2 Int) (x_3 Int) (x_4 Int) (x_5 Int) (x_6 Int) (x_7 Int) (x_8 Int) (x_9 Int) (x_10 Int) (x_11 Int) (x_12 Int) (x_13 Int)) Bool)

(synth-fun h46 ((x_0 Int) (x_1 Int) (x_2 Int) (x_3 Int) (x_4 Int) (x_5 Int) (x_6 Int) (x_7 Int) (x_8 Int) (x_9 Int) (x_10 Int) (x_11 Int) (x_12 Int) (x_13 Int)) Bool)

(synth-fun h47 ((x_0 Int) (x_1 Int) (x_2 Int) (x_3 Int) (x_4 Int) (x_5 Int) (x_6 Int) (x_7 Int) (x_8 Int) (x_9 Int) (x_10 Int) (x_11 Int) (x_12 Int) (x_13 Int)) Bool)

(synth-fun h48 ((x_0 Int) (x_1 Int) (x_2 Int) (x_3 Int) (x_4 Int) (x_5 Int) (x_6 Int) (x_7 Int) (x_8 Int) (x_9 Int) (x_10 Int) (x_11 Int) (x_12 Int) (x_13 Int)) Bool)

(synth-fun h49 ((x_0 Int) (x_1 Int) (x_2 Int) (x_3 Int) (x_4 Int) (x_5 Int) (x_6 Int) (x_7 Int) (x_8 Int) (x_9 Int) (x_10 Int) (x_11 Int) (x_12 Int) (x_13 Int)) Bool)

(synth-fun h50 ((x_0 Int) (x_1 Int) (x_2 Int) (x_3 Int) (x_4 Int) (x_5 Int) (x_6 Int) (x_7 Int) (x_8 Int) (x_9 Int) (x_10 Int) (x_11 Int) (x_12 Int) (x_13 Int)) Bool)

(synth-fun h51 ((x_0 Int) (x_1 Int) (x_2 Int) (x_3 Int) (x_4 Int) (x_5 Int) (x_6 Int) (x_7 Int) (x_8 Int) (x_9 Int) (x_10 Int) (x_11 Int) (x_12 Int) (x_13 Int)) Bool)

(synth-fun h52 ((x_0 Int) (x_1 Int) (x_2 Int) (x_3 Int) (x_4 Int) (x_5 Int) (x_6 Int) (x_7 Int) (x_8 Int) (x_9 Int) (x_10 Int) (x_11 Int) (x_12 Int) (x_13 Int)) Bool)

(constraint (forall ((A Int) (B Int) (C Int) (D Int) (E Int) (F Int) (G Int)) (=> (= 1 1) (h1 A B C D E F G A B C D E F G))))
(constraint (forall ((H Int) (I Int) (J Int) (K Int) (A Int) (B Int) (C Int) (D Int) (E Int) (F Int) (G Int) (O Int) (P Int) (Q Int) (R Int) (L Int) (M Int) (N Int)) (=> (and (= H 1) (= I 0) (= J 0) (= K 0) (h1 A B C D E F G O P Q R L M N)) (h2 A B C D E F G H I J K L M N))))
(constraint (forall ((A Int) (B Int) (C Int) (D Int) (E Int) (F Int) (G Int) (H Int) (I Int) (J Int) (K Int) (L Int) (M Int) (N Int)) (=> (h2 A B C D E F G H I J K L M N) (h3 A B C D E F G H I J K L M N))))
(constraint (forall ((A Int) (B Int) (C Int) (D Int) (E Int) (F Int) (G Int) (H Int) (I Int) (J Int) (K Int) (L Int) (M Int) (N Int)) (=> (h3 A B C D E F G H I J K L M N) (h4 A B C D E F G H I J K L M N))))
(constraint (forall ((A Int) (B Int) (C Int) (D Int) (E Int) (F Int) (G Int) (H Int) (I Int) (J Int) (K Int) (L Int) (M Int) (N Int)) (=> (h4 A B C D E F G H I J K L M N) (h5 A B C D E F G H I J K L M N))))
(constraint (forall ((A Int) (B Int) (C Int) (D Int) (E Int) (F Int) (G Int) (H Int) (I Int) (J Int) (K Int) (L Int) (M Int) (N Int)) (=> (h5 A B C D E F G H I J K L M N) (h6 A B C D E F G H I J K L M N))))
(constraint (forall ((A Int) (B Int) (C Int) (D Int) (E Int) (F Int) (G Int) (H Int) (I Int) (J Int) (K Int) (L Int) (M Int) (N Int)) (=> (h6 A B C D E F G H I J K L M N) (h7 A B C D E F G H I J K L M N))))
(constraint (forall ((A Int) (B Int) (C Int) (D Int) (E Int) (F Int) (G Int) (H Int) (I Int) (J Int) (K Int) (L Int) (M Int) (N Int)) (=> (h7 A B C D E F G H I J K L M N) (h8 A B C D E F G H I J K L M N))))
(constraint (forall ((N Int) (A Int) (B Int) (C Int) (D Int) (E Int) (F Int) (G Int) (H Int) (I Int) (J Int) (K Int) (L Int) (M Int)) (=> (and (<= N (- 1)) (h8 A B C D E F G H I J K L M N)) (h9 A B C D E F G H I J K L M N))))
(constraint (forall ((A Int) (B Int) (C Int) (D Int) (E Int) (F Int) (G Int) (H Int) (I Int) (J Int) (K Int) (L Int) (M Int) (N Int)) (=> (h9 A B C D E F G H I J K L M N) (h10 A B C D E F G H I J K L M N))))
(constraint (forall ((N Int) (A Int) (B Int) (C Int) (D Int) (E Int) (F Int) (G Int) (H Int) (I Int) (J Int) (K Int) (L Int) (M Int)) (=> (and (>= N 1) (h8 A B C D E F G H I J K L M N)) (h11 A B C D E F G H I J K L M N))))
(constraint (forall ((A Int) (B Int) (C Int) (D Int) (E Int) (F Int) (G Int) (H Int) (I Int) (J Int) (K Int) (L Int) (M Int) (N Int)) (=> (h11 A B C D E F G H I J K L M N) (h10 A B C D E F G H I J K L M N))))
(constraint (forall ((N Int) (A Int) (B Int) (C Int) (D Int) (E Int) (F Int) (G Int) (H Int) (I Int) (J Int) (K Int) (L Int) (M Int)) (=> (and (= N 0) (h8 A B C D E F G H I J K L M N)) (h12 A B C D E F G H I J K L M N))))
(constraint (forall ((A Int) (B Int) (C Int) (D Int) (E Int) (F Int) (G Int) (H Int) (I Int) (J Int) (K Int) (L Int) (M Int) (N Int)) (=> (h12 A B C D E F G H I J K L M N) (h13 A B C D E F G H I J K L M N))))
(constraint (forall ((A Int) (B Int) (C Int) (D Int) (E Int) (F Int) (G Int) (H Int) (I Int) (J Int) (K Int) (L Int) (M Int) (N Int)) (=> (h13 A B C D E F G H I J K L M N) (h14 A B C D E F G H I J K L M N))))
(constraint (forall ((A Int) (B Int) (C Int) (D Int) (E Int) (F Int) (G Int) (H Int) (I Int) (J Int) (K Int) (L Int) (M Int) (N Int)) (=> (h10 A B C D E F G H I J K L M N) (h15 A B C D E F G H I J K L M N))))
(constraint (forall ((A Int) (B Int) (C Int) (D Int) (E Int) (F Int) (G Int) (H Int) (I Int) (J Int) (K Int) (L Int) (M Int) (N Int)) (=> (h15 A B C D E F G H I J K L M N) (h16 A B C D E F G H I J K L M N))))
(constraint (forall ((A Int) (B Int) (C Int) (D Int) (E Int) (F Int) (G Int) (H Int) (I Int) (J Int) (K Int) (L Int) (M Int) (N Int)) (=> (h16 A B C D E F G H I J K L M N) (h17 A B C D E F G H I J K L M N))))
(constraint (forall ((A Int) (B Int) (C Int) (D Int) (E Int) (F Int) (G Int) (H Int) (I Int) (J Int) (K Int) (L Int) (M Int) (N Int)) (=> (h17 A B C D E F G H I J K L M N) (h18 A B C D E F G H I J K L M N))))
(constraint (forall ((A Int) (B Int) (C Int) (D Int) (E Int) (F Int) (G Int) (H Int) (I Int) (J Int) (K Int) (L Int) (M Int) (N Int)) (=> (h18 A B C D E F G H I J K L M N) (h19 A B C D E F G H I J K L M N))))
(constraint (forall ((L Int) (A Int) (B Int) (C Int) (D Int) (E Int) (F Int) (G Int) (H Int) (I Int) (J Int) (K Int) (M Int) (N Int)) (=> (and (<= L (- 1)) (h19 A B C D E F G H I J K L M N)) (h20 A B C D E F G H I J K L M N))))
(constraint (forall ((A Int) (B Int) (C Int) (D Int) (E Int) (F Int) (G Int) (H Int) (I Int) (J Int) (K Int) (L Int) (M Int) (N Int)) (=> (h20 A B C D E F G H I J K L M N) (h21 A B C D E F G H I J K L M N))))
(constraint (forall ((L Int) (A Int) (B Int) (C Int) (D Int) (E Int) (F Int) (G Int) (H Int) (I Int) (J Int) (K Int) (M Int) (N Int)) (=> (and (>= L 1) (h19 A B C D E F G H I J K L M N)) (h22 A B C D E F G H I J K L M N))))
(constraint (forall ((A Int) (B Int) (C Int) (D Int) (E Int) (F Int) (G Int) (H Int) (I Int) (J Int) (K Int) (L Int) (M Int) (N Int)) (=> (h22 A B C D E F G H I J K L M N) (h21 A B C D E F G H I J K L M N))))
(constraint (forall ((L Int) (A Int) (B Int) (C Int) (D Int) (E Int) (F Int) (G Int) (H Int) (I Int) (J Int) (K Int) (M Int) (N Int)) (=> (and (= L 0) (h19 A B C D E F G H I J K L M N)) (h23 A B C D E F G H I J K L M N))))
(constraint (forall ((A Int) (B Int) (C Int) (D Int) (E Int) (F Int) (G Int) (H Int) (I Int) (J Int) (K Int) (L Int) (M Int) (N Int)) (=> (h23 A B C D E F G H I J K L M N) (h24 A B C D E F G H I J K L M N))))
(constraint (forall ((A Int) (B Int) (C Int) (D Int) (E Int) (F Int) (G Int) (H Int) (I Int) (J Int) (K Int) (L Int) (M Int) (N Int)) (=> (h24 A B C D E F G H I J K L M N) (h25 A B C D E F G H I J K L M N))))
(constraint (forall ((A Int) (B Int) (C Int) (D Int) (E Int) (F Int) (G Int) (H Int) (I Int) (J Int) (K Int) (L Int) (M Int) (N Int)) (=> (h21 A B C D E F G H I J K L M N) (h26 A B C D E F G H I J K L M N))))
(constraint (forall ((O Int) (J Int) (A Int) (B Int) (C Int) (D Int) (E Int) (F Int) (G Int) (H Int) (I Int) (K Int) (L Int) (M Int) (N Int)) (let ((a!1 (and (= O (+ (- 1) J)) (h26 A B C D E F G H I O K L M N)))) (=> a!1 (h27 A B C D E F G H I J K L M N)))))
(constraint (forall ((A Int) (B Int) (C Int) (D Int) (E Int) (F Int) (G Int) (H Int) (I Int) (J Int) (K Int) (L Int) (M Int) (N Int)) (=> (h21 A B C D E F G H I J K L M N) (h28 A B C D E F G H I J K L M N))))
(constraint (forall ((A Int) (B Int) (C Int) (D Int) (E Int) (F Int) (G Int) (H Int) (I Int) (J Int) (K Int) (L Int) (M Int) (N Int)) (=> (h28 A B C D E F G H I J K L M N) (h29 A B C D E F G H I J K L M N))))
(constraint (forall ((A Int) (B Int) (C Int) (D Int) (E Int) (F Int) (G Int) (H Int) (I Int) (J Int) (K Int) (L Int) (M Int) (N Int)) (=> (h21 A B C D E F G H I J K L M N) (h30 A B C D E F G H I J K L M N))))
(constraint (forall ((A Int) (B Int) (C Int) (D Int) (E Int) (F Int) (G Int) (H Int) (I Int) (J Int) (K Int) (L Int) (M Int) (N Int)) (=> (h30 A B C D E F G H I J K L M N) (h29 A B C D E F G H I J K L M N))))
(constraint (forall ((A Int) (B Int) (C Int) (D Int) (E Int) (F Int) (G Int) (H Int) (I Int) (J Int) (K Int) (L Int) (M Int) (N Int)) (=> (h27 A B C D E F G H I J K L M N) (h29 A B C D E F G H I J K L M N))))
(constraint (forall ((A Int) (B Int) (C Int) (D Int) (E Int) (F Int) (G Int) (H Int) (I Int) (J Int) (K Int) (L Int) (M Int) (N Int)) (=> (h29 A B C D E F G H I J K L M N) (h31 A B C D E F G H I J K L M N))))
(constraint (forall ((O Int) (K Int) (A Int) (B Int) (C Int) (D Int) (E Int) (F Int) (G Int) (H Int) (I Int) (J Int) (L Int) (M Int) (N Int)) (let ((a!1 (and (= O (+ (- 1) K)) (h31 A B C D E F G H I J O L M N)))) (=> a!1 (h32 A B C D E F G H I J K L M N)))))
(constraint (forall ((A Int) (B Int) (C Int) (D Int) (E Int) (F Int) (G Int) (H Int) (I Int) (J Int) (K Int) (L Int) (M Int) (N Int)) (=> (h29 A B C D E F G H I J K L M N) (h33 A B C D E F G H I J K L M N))))
(constraint (forall ((A Int) (B Int) (C Int) (D Int) (E Int) (F Int) (G Int) (H Int) (I Int) (J Int) (K Int) (L Int) (M Int) (N Int)) (=> (h33 A B C D E F G H I J K L M N) (h16 A B C D E F G H I J K L M N))))
(constraint (forall ((A Int) (B Int) (C Int) (D Int) (E Int) (F Int) (G Int) (H Int) (I Int) (J Int) (K Int) (L Int) (M Int) (N Int)) (=> (h29 A B C D E F G H I J K L M N) (h34 A B C D E F G H I J K L M N))))
(constraint (forall ((A Int) (B Int) (C Int) (D Int) (E Int) (F Int) (G Int) (H Int) (I Int) (J Int) (K Int) (L Int) (M Int) (N Int)) (=> (h34 A B C D E F G H I J K L M N) (h16 A B C D E F G H I J K L M N))))
(constraint (forall ((A Int) (B Int) (C Int) (D Int) (E Int) (F Int) (G Int) (H Int) (I Int) (J Int) (K Int) (L Int) (M Int) (N Int)) (=> (h32 A B C D E F G H I J K L M N) (h16 A B C D E F G H I J K L M N))))
(constraint (forall ((A Int) (B Int) (C Int) (D Int) (E Int) (F Int) (G Int) (H Int) (I Int) (J Int) (K Int) (L Int) (M Int) (N Int)) (=> (h25 A B C D E F G H I J K L M N) (h35 A B C D E F G H I J K L M N))))
(constraint (forall ((A Int) (B Int) (C Int) (D Int) (E Int) (F Int) (G Int) (H Int) (I Int) (J Int) (K Int) (L Int) (M Int) (N Int)) (=> (h35 A B C D E F G H I J K L M N) (h36 A B C D E F G H I J K L M N))))
(constraint (forall ((A Int) (B Int) (C Int) (D Int) (E Int) (F Int) (G Int) (H Int) (I Int) (J Int) (K Int) (L Int) (M Int) (N Int)) (=> (h36 A B C D E F G H I J K L M N) (h37 A B C D E F G H I J K L M N))))
(constraint (forall ((A Int) (B Int) (C Int) (D Int) (E Int) (F Int) (G Int) (H Int) (I Int) (J Int) (K Int) (L Int) (M Int) (N Int)) (=> (h37 A B C D E F G H I J K L M N) (h38 A B C D E F G H I J K L M N))))
(constraint (forall ((A Int) (B Int) (C Int) (D Int) (E Int) (F Int) (G Int) (H Int) (I Int) (J Int) (K Int) (L Int) (M Int) (N Int)) (=> (h38 A B C D E F G H I J K L M N) (h39 A B C D E F G H I J K L M N))))
(constraint (forall ((A Int) (B Int) (C Int) (D Int) (E Int) (F Int) (G Int) (H Int) (I Int) (J Int) (K Int) (L Int) (M Int) (N Int)) (=> (h39 A B C D E F G H I J K L M N) (h40 A B C D E F G H I J K L M N))))
(constraint (forall ((M Int) (A Int) (B Int) (C Int) (D Int) (E Int) (F Int) (G Int) (H Int) (I Int) (J Int) (K Int) (L Int) (N Int)) (=> (and (<= M (- 1)) (h40 A B C D E F G H I J K L M N)) (h41 A B C D E F G H I J K L M N))))
(constraint (forall ((J Int) (K Int) (I Int) (H Int) (A Int) (B Int) (C Int) (D Int) (E Int) (F Int) (G Int) (O Int) (P Int) (L Int) (M Int) (N Int)) (let ((a!1 (and (= J (+ (- K) I)) (= H (+ 1 I)) (h41 A B C D E F G O P J K L M N)))) (=> a!1 (h42 A B C D E F G H I J K L M N)))))
(constraint (forall ((M Int) (A Int) (B Int) (C Int) (D Int) (E Int) (F Int) (G Int) (H Int) (I Int) (J Int) (K Int) (L Int) (N Int)) (=> (and (>= M 1) (h40 A B C D E F G H I J K L M N)) (h43 A B C D E F G H I J K L M N))))
(constraint (forall ((J Int) (K Int) (I Int) (H Int) (A Int) (B Int) (C Int) (D Int) (E Int) (F Int) (G Int) (O Int) (P Int) (L Int) (M Int) (N Int)) (let ((a!1 (and (= J (+ (- K) I)) (= H (+ 1 I)) (h43 A B C D E F G O P J K L M N)))) (=> a!1 (h42 A B C D E F G H I J K L M N)))))
(constraint (forall ((M Int) (A Int) (B Int) (C Int) (D Int) (E Int) (F Int) (G Int) (H Int) (I Int) (J Int) (K Int) (L Int) (N Int)) (=> (and (= M 0) (h40 A B C D E F G H I J K L M N)) (h44 A B C D E F G H I J K L M N))))
(constraint (forall ((A Int) (B Int) (C Int) (D Int) (E Int) (F Int) (G Int) (H Int) (I Int) (J Int) (K Int) (L Int) (M Int) (N Int)) (=> (h44 A B C D E F G H I J K L M N) (h45 A B C D E F G H I J K L M N))))
(constraint (forall ((A Int) (B Int) (C Int) (D Int) (E Int) (F Int) (G Int) (H Int) (I Int) (J Int) (K Int) (L Int) (M Int) (N Int)) (=> (h45 A B C D E F G H I J K L M N) (h46 A B C D E F G H I J K L M N))))
(constraint (forall ((A Int) (B Int) (C Int) (D Int) (E Int) (F Int) (G Int) (H Int) (I Int) (J Int) (K Int) (L Int) (M Int) (N Int)) (=> (h42 A B C D E F G H I J K L M N) (h37 A B C D E F G H I J K L M N))))
(constraint (forall ((A Int) (B Int) (C Int) (D Int) (E Int) (F Int) (G Int) (H Int) (I Int) (J Int) (K Int) (L Int) (M Int) (N Int)) (=> (h46 A B C D E F G H I J K L M N) (h5 A B C D E F G H I J K L M N))))
(constraint (forall ((A Int) (B Int) (C Int) (D Int) (E Int) (F Int) (G Int) (H Int) (I Int) (J Int) (K Int) (L Int) (M Int) (N Int)) (=> (h14 A B C D E F G H I J K L M N) (h47 A B C D E F G H I J K L M N))))
(constraint (forall ((J Int) (K Int) (A Int) (B Int) (C Int) (D Int) (E Int) (F Int) (G Int) (H Int) (I Int) (L Int) (M Int) (N Int)) (=> (and (<= (- J K) (- 1)) (h47 A B C D E F G H I J K L M N)) (h48 A B C D E F G H I J K L M N))))
(constraint (forall ((A Int) (B Int) (C Int) (D Int) (E Int) (F Int) (G Int) (H Int) (I Int) (J Int) (K Int) (L Int) (M Int) (N Int)) (=> (h48 A B C D E F G H I J K L M N) false)))
(constraint (forall ((J Int) (K Int) (A Int) (B Int) (C Int) (D Int) (E Int) (F Int) (G Int) (H Int) (I Int) (L Int) (M Int) (N Int)) (=> (and (>= (- J K) 1) (h47 A B C D E F G H I J K L M N)) (h49 A B C D E F G H I J K L M N))))
(constraint (forall ((A Int) (B Int) (C Int) (D Int) (E Int) (F Int) (G Int) (H Int) (I Int) (J Int) (K Int) (L Int) (M Int) (N Int)) (=> (h49 A B C D E F G H I J K L M N) false)))
(constraint (forall ((J Int) (K Int) (A Int) (B Int) (C Int) (D Int) (E Int) (F Int) (G Int) (H Int) (I Int) (L Int) (M Int) (N Int)) (=> (and (= J K) (h47 A B C D E F G H I J K L M N)) (h50 A B C D E F G H I J K L M N))))
(constraint (forall ((A Int) (B Int) (C Int) (D Int) (E Int) (F Int) (G Int) (H Int) (I Int) (J Int) (K Int) (L Int) (M Int) (N Int)) (=> (h50 A B C D E F G H I J K L M N) (h51 A B C D E F G H I J K L M N))))
(constraint (forall ((A Int) (B Int) (C Int) (D Int) (E Int) (F Int) (G Int) (H Int) (I Int) (J Int) (K Int) (L Int) (M Int) (N Int)) (=> (h51 A B C D E F G H I J K L M N) (h52 A B C D E F G H I J K L M N))))

(check-synth)

